<number of tasks>
45

<cycle time>
184

<task times>
1 9
2 9
3 10
4 10
5 17
6 17
7 13
8 13
9 20
10 20
11 10
12 11
13 6
14 22
15 11
16 19
17 12
18 3
19 7
20 4
21 55
22 14
23 27
24 29
25 26
26 6
27 5
28 24
29 4
30 5
31 7
32 4
33 15
34 3
35 7
36 9
37 4
38 7
39 5
40 4
41 21
42 12
43 6
44 5
45 5

<precedence relations>
1,3
1,7
2,4
2,8
3,5
4,6
5,9
6,10
7,9
7,14
8,10
8,14
9,41
10,41
11,13
12,13
12,37
13,14
13,15
14,17
14,25
14,29
14,30
14,31
14,32
15,16
15,18
15,23
15,24
16,19
17,26
17,27
18,19
19,20
19,33
20,21
21,22
22,28
23,33
24,33
25,26
26,38
27,28
27,33
28,38
29,41
30,41
31,41
32,41
33,34
33,35
33,36
34,38
35,40
36,38
37,43
38,40
39,41
40,41
41,42
42,44
42,45

<setup times forward>
1,4:2
1,6:2
1,10:2
1,22:1
1,23:2
1,24:2
1,39:2
1,43:2
2,4:2
2,5:2
2,9:2
2,22:1
2,23:2
2,24:2
2,39:2
2,43:2
3,4:2
3,5:2
3,6:2
3,10:2
3,14:2
3,17:1
3,22:1
3,23:2
3,24:2
3,25:1
3,26:1
3,27:1
3,28:1
3,29:1
3,30:1
3,31:2
3,32:2
3,33:1
3,34:1
3,35:1
3,36:1
3,38:1
3,39:2
3,40:1
3,43:2
4,1:2
4,3:2
4,7:2
4,8:2
4,11:2
4,12:2
4,13:2
4,15:2
4,16:2
4,17:3
4,18:2
4,19:2
4,20:2
4,21:2
4,22:3
4,25:3
4,26:3
4,27:3
4,28:3
4,29:3
4,30:3
4,33:3
4,34:3
4,35:3
4,36:3
4,37:2
4,38:3
4,40:3
5,2:2
5,7:2
5,8:2
5,11:2
5,12:2
5,13:2
5,15:2
5,16:2
5,17:3
5,18:2
5,19:2
5,20:2
5,21:2
5,22:3
5,25:3
5,26:3
5,27:3
5,28:3
5,29:3
5,30:3
5,33:3
5,34:3
5,35:3
5,36:3
5,37:2
5,38:3
5,40:3
6,1:2
6,3:2
6,7:2
6,8:2
6,11:2
6,12:2
6,13:2
6,15:2
6,16:2
6,17:3
6,18:2
6,19:2
6,20:2
6,21:2
6,22:3
6,25:3
6,26:3
6,27:3
6,28:3
6,29:3
6,30:3
6,33:3
6,34:3
6,35:3
6,36:3
6,37:2
6,38:3
6,40:3
7,4:2
7,5:2
7,6:2
7,9:2
7,10:2
7,14:2
7,22:1
7,23:2
7,24:2
7,39:2
7,43:2
8,4:2
8,5:2
8,6:2
8,9:2
8,10:2
8,14:2
8,22:1
8,23:2
8,24:2
8,39:2
8,43:2
9,2:2
9,8:2
9,11:2
9,12:2
9,13:2
9,15:2
9,16:2
9,17:3
9,18:2
9,19:2
9,20:2
9,21:2
9,22:3
9,25:3
9,26:3
9,27:3
9,28:3
9,29:3
9,30:3
9,33:3
9,34:3
9,35:3
9,36:3
9,37:2
9,38:3
9,40:3
9,41:3
10,1:2
10,3:2
10,7:2
10,11:2
10,12:2
10,13:2
10,15:2
10,16:2
10,17:3
10,18:2
10,19:2
10,20:2
10,21:2
10,22:3
10,25:3
10,26:3
10,27:3
10,28:3
10,29:3
10,30:3
10,33:3
10,34:3
10,35:3
10,36:3
10,37:2
10,38:3
10,40:3
10,41:3
11,4:2
11,5:2
11,6:2
11,9:2
11,10:2
11,39:2
11,43:2
12,4:2
12,5:2
12,6:2
12,9:2
12,10:2
12,39:2
13,4:2
13,5:2
13,6:2
13,9:2
13,10:2
13,14:2
13,39:2
13,43:2
14,3:2
14,15:2
14,16:2
14,17:3
14,18:2
14,19:2
14,20:2
14,21:2
14,22:3
14,25:3
14,29:3
14,30:3
14,37:2
15,4:2
15,5:2
15,6:2
15,9:2
15,10:2
15,14:2
15,17:1
15,23:2
15,24:2
15,25:1
15,26:1
15,27:1
15,29:1
15,30:1
15,31:2
15,32:2
15,39:2
15,43:2
16,4:2
16,5:2
16,6:2
16,9:2
16,10:2
16,14:2
16,17:1
16,23:2
16,24:2
16,25:1
16,26:1
16,27:1
16,29:1
16,30:1
16,31:2
16,32:2
16,39:2
16,43:2
17,3:1
17,4:3
17,5:3
17,6:3
17,9:3
17,10:3
17,15:1
17,16:1
17,18:1
17,19:1
17,20:1
17,21:1
17,23:3
17,24:3
17,31:3
17,32:3
17,37:1
17,39:3
17,43:3
18,4:2
18,5:2
18,6:2
18,9:2
18,10:2
18,14:2
18,17:1
18,23:2
18,24:2
18,25:1
18,26:1
18,27:1
18,29:1
18,30:1
18,31:2
18,32:2
18,39:2
18,43:2
19,4:2
19,5:2
19,6:2
19,9:2
19,10:2
19,14:2
19,17:1
19,23:2
19,24:2
19,25:1
19,26:1
19,27:1
19,29:1
19,30:1
19,31:2
19,32:2
19,33:1
19,39:2
19,43:2
20,4:2
20,5:2
20,6:2
20,9:2
20,10:2
20,14:2
20,17:1
20,23:2
20,24:2
20,25:1
20,26:1
20,27:1
20,29:1
20,30:1
20,31:2
20,32:2
20,33:1
20,34:1
20,35:1
20,36:1
20,39:2
20,43:2
21,4:2
21,5:2
21,6:2
21,9:2
21,10:2
21,14:2
21,17:1
21,22:1
21,23:2
21,24:2
21,25:1
21,26:1
21,27:1
21,29:1
21,30:1
21,31:2
21,32:2
21,33:1
21,34:1
21,35:1
21,36:1
21,39:2
21,43:2
22,1:1
22,2:1
22,3:1
22,4:3
22,5:3
22,6:3
22,7:1
22,8:1
22,9:3
22,10:3
22,14:3
22,23:3
22,24:3
22,31:3
22,32:3
22,37:1
22,39:3
22,43:3
23,1:2
23,2:2
23,3:2
23,7:2
23,8:2
23,16:2
23,17:3
23,18:2
23,19:2
23,20:2
23,21:2
23,22:3
23,25:3
23,26:3
23,27:3
23,28:3
23,29:3
23,30:3
23,33:3
23,37:2
24,1:2
24,2:2
24,3:2
24,7:2
24,8:2
24,16:2
24,17:3
24,18:2
24,19:2
24,20:2
24,21:2
24,22:3
24,25:3
24,26:3
24,27:3
24,28:3
24,29:3
24,30:3
24,33:3
24,37:2
25,3:1
25,4:3
25,5:3
25,6:3
25,9:3
25,10:3
25,15:1
25,16:1
25,18:1
25,19:1
25,20:1
25,21:1
25,23:3
25,24:3
25,31:3
25,32:3
25,37:1
25,39:3
25,43:3
26,3:1
26,4:3
26,5:3
26,6:3
26,9:3
26,10:3
26,15:1
26,16:1
26,18:1
26,19:1
26,20:1
26,21:1
26,23:3
26,24:3
26,31:3
26,32:3
26,37:1
26,39:3
26,43:3
27,3:1
27,4:3
27,5:3
27,6:3
27,9:3
27,10:3
27,15:1
27,16:1
27,18:1
27,19:1
27,20:1
27,21:1
27,23:3
27,24:3
27,31:3
27,32:3
27,37:1
27,39:3
27,43:3
28,3:1
28,4:3
28,5:3
28,6:3
28,9:3
28,10:3
28,23:3
28,24:3
28,31:3
28,32:3
28,37:1
28,39:3
28,43:3
29,3:1
29,4:3
29,5:3
29,6:3
29,9:3
29,10:3
29,15:1
29,16:1
29,18:1
29,19:1
29,20:1
29,21:1
29,23:3
29,24:3
29,31:3
29,32:3
29,37:1
29,39:3
29,43:3
30,3:1
30,4:3
30,5:3
30,6:3
30,9:3
30,10:3
30,15:1
30,16:1
30,18:1
30,19:1
30,20:1
30,21:1
30,23:3
30,24:3
30,31:3
30,32:3
30,37:1
30,39:3
30,43:3
31,3:2
31,15:2
31,16:2
31,17:3
31,18:2
31,19:2
31,20:2
31,21:2
31,22:3
31,25:3
31,26:3
31,27:3
31,28:3
31,29:3
31,30:3
31,33:3
31,34:3
31,35:3
31,36:3
31,37:2
31,38:3
31,40:3
31,41:3
32,3:2
32,15:2
32,16:2
32,17:3
32,18:2
32,19:2
32,20:2
32,21:2
32,22:3
32,25:3
32,26:3
32,27:3
32,28:3
32,29:3
32,30:3
32,33:3
32,34:3
32,35:3
32,36:3
32,37:2
32,38:3
32,40:3
32,41:3
33,3:1
33,4:3
33,5:3
33,6:3
33,9:3
33,10:3
33,20:1
33,21:1
33,31:3
33,32:3
33,37:1
33,39:3
33,43:3
34,3:1
34,4:3
34,5:3
34,6:3
34,9:3
34,10:3
34,20:1
34,21:1
34,31:3
34,32:3
34,37:1
34,39:3
34,43:3
35,3:1
35,4:3
35,5:3
35,6:3
35,9:3
35,10:3
35,20:1
35,21:1
35,31:3
35,32:3
35,37:1
35,39:3
35,43:3
36,3:1
36,4:3
36,5:3
36,6:3
36,9:3
36,10:3
36,20:1
36,21:1
36,31:3
36,32:3
36,37:1
36,39:3
36,43:3
37,4:2
37,5:2
37,6:2
37,9:2
37,10:2
37,14:2
37,17:1
37,22:1
37,23:2
37,24:2
37,25:1
37,26:1
37,27:1
37,28:1
37,29:1
37,30:1
37,31:2
37,32:2
37,33:1
37,34:1
37,35:1
37,36:1
37,38:1
37,39:2
37,40:1
37,41:1
37,42:1
37,43:2
37,44:1
37,45:1
38,3:1
38,4:3
38,5:3
38,6:3
38,9:3
38,10:3
38,31:3
38,32:3
38,37:1
38,39:3
38,43:3
39,1:2
39,2:2
39,3:2
39,7:2
39,8:2
39,11:2
39,12:2
39,13:2
39,15:2
39,16:2
39,17:3
39,18:2
39,19:2
39,20:2
39,21:2
39,22:3
39,25:3
39,26:3
39,27:3
39,28:3
39,29:3
39,30:3
39,33:3
39,34:3
39,35:3
39,36:3
39,37:2
39,38:3
39,40:3
39,41:3
40,3:1
40,4:3
40,5:3
40,6:3
40,9:3
40,10:3
40,31:3
40,32:3
40,37:1
40,39:3
40,43:3
41,37:1
41,43:3
42,37:1
42,43:3
43,1:2
43,2:2
43,3:2
43,7:2
43,8:2
43,11:2
43,13:2
43,15:2
43,16:2
43,17:3
43,18:2
43,19:2
43,20:2
43,21:2
43,22:3
43,25:3
43,26:3
43,27:3
43,28:3
43,29:3
43,30:3
43,33:3
43,34:3
43,35:3
43,36:3
43,38:3
43,40:3
43,41:3
43,42:3
43,44:3
43,45:3
44,37:1
44,43:3
45,37:1
45,43:3

<setup times backward>
1,22:1
2,22:1
3,17:1
3,22:1
3,25:1
3,26:1
3,27:1
3,28:1
3,29:1
3,30:1
3,33:1
3,34:1
3,35:1
3,36:1
3,38:1
3,40:1
4,1:2
4,2:2
4,3:2
4,7:2
4,8:2
4,11:2
4,12:2
4,13:2
4,15:2
4,16:2
4,17:3
4,18:2
4,19:2
4,20:2
4,21:2
4,22:3
4,25:3
4,26:3
4,27:3
4,28:3
4,29:3
4,30:3
4,33:3
4,34:3
4,35:3
4,36:3
4,37:2
4,38:3
4,40:3
5,1:2
5,2:2
5,3:2
5,7:2
5,8:2
5,11:2
5,12:2
5,13:2
5,15:2
5,16:2
5,17:3
5,18:2
5,19:2
5,20:2
5,21:2
5,22:3
5,25:3
5,26:3
5,27:3
5,28:3
5,29:3
5,30:3
5,33:3
5,34:3
5,35:3
5,36:3
5,37:2
5,38:3
5,40:3
6,1:2
6,2:2
6,3:2
6,7:2
6,8:2
6,11:2
6,12:2
6,13:2
6,15:2
6,16:2
6,17:3
6,18:2
6,19:2
6,20:2
6,21:2
6,22:3
6,25:3
6,26:3
6,27:3
6,28:3
6,29:3
6,30:3
6,33:3
6,34:3
6,35:3
6,36:3
6,37:2
6,38:3
6,40:3
7,22:1
8,22:1
9,1:2
9,2:2
9,3:2
9,7:2
9,8:2
9,11:2
9,12:2
9,13:2
9,15:2
9,16:2
9,17:3
9,18:2
9,19:2
9,20:2
9,21:2
9,22:3
9,25:3
9,26:3
9,27:3
9,28:3
9,29:3
9,30:3
9,33:3
9,34:3
9,35:3
9,36:3
9,37:2
9,38:3
9,40:3
10,1:2
10,2:2
10,3:2
10,7:2
10,8:2
10,11:2
10,12:2
10,13:2
10,15:2
10,16:2
10,17:3
10,18:2
10,19:2
10,20:2
10,21:2
10,22:3
10,25:3
10,26:3
10,27:3
10,28:3
10,29:3
10,30:3
10,33:3
10,34:3
10,35:3
10,36:3
10,37:2
10,38:3
10,40:3
14,1:2
14,2:2
14,3:2
14,7:2
14,8:2
14,11:2
14,12:2
14,13:2
14,15:2
14,16:2
14,18:2
14,19:2
14,20:2
14,21:2
14,22:3
14,37:2
15,17:1
15,25:1
15,26:1
15,27:1
15,29:1
15,30:1
16,17:1
16,25:1
16,26:1
16,27:1
16,29:1
16,30:1
18,17:1
18,25:1
18,26:1
18,27:1
18,29:1
18,30:1
19,17:1
19,25:1
19,26:1
19,27:1
19,29:1
19,30:1
20,17:1
20,25:1
20,26:1
20,27:1
20,29:1
20,30:1
20,33:1
20,34:1
20,35:1
20,36:1
21,17:1
21,25:1
21,26:1
21,27:1
21,29:1
21,30:1
21,33:1
21,34:1
21,35:1
21,36:1
23,1:2
23,2:2
23,3:2
23,7:2
23,8:2
23,11:2
23,12:2
23,13:2
23,15:2
23,16:2
23,17:3
23,18:2
23,19:2
23,20:2
23,21:2
23,22:3
23,25:3
23,26:3
23,27:3
23,28:3
23,29:3
23,30:3
23,37:2
24,1:2
24,2:2
24,3:2
24,7:2
24,8:2
24,11:2
24,12:2
24,13:2
24,15:2
24,16:2
24,17:3
24,18:2
24,19:2
24,20:2
24,21:2
24,22:3
24,25:3
24,26:3
24,27:3
24,28:3
24,29:3
24,30:3
24,37:2
31,1:2
31,2:2
31,3:2
31,7:2
31,8:2
31,11:2
31,12:2
31,13:2
31,15:2
31,16:2
31,17:3
31,18:2
31,19:2
31,20:2
31,21:2
31,22:3
31,25:3
31,26:3
31,27:3
31,28:3
31,29:3
31,30:3
31,33:3
31,34:3
31,35:3
31,36:3
31,37:2
31,38:3
31,40:3
32,1:2
32,2:2
32,3:2
32,7:2
32,8:2
32,11:2
32,12:2
32,13:2
32,15:2
32,16:2
32,17:3
32,18:2
32,19:2
32,20:2
32,21:2
32,22:3
32,25:3
32,26:3
32,27:3
32,28:3
32,29:3
32,30:3
32,33:3
32,34:3
32,35:3
32,36:3
32,37:2
32,38:3
32,40:3
37,17:1
37,22:1
37,25:1
37,26:1
37,27:1
37,28:1
37,29:1
37,30:1
37,33:1
37,34:1
37,35:1
37,36:1
37,38:1
37,40:1
37,41:1
37,42:1
37,44:1
37,45:1
39,1:2
39,2:2
39,3:2
39,7:2
39,8:2
39,11:2
39,12:2
39,13:2
39,15:2
39,16:2
39,17:3
39,18:2
39,19:2
39,20:2
39,21:2
39,22:3
39,25:3
39,26:3
39,27:3
39,28:3
39,29:3
39,30:3
39,33:3
39,34:3
39,35:3
39,36:3
39,37:2
39,38:3
39,40:3
43,1:2
43,2:2
43,3:2
43,7:2
43,8:2
43,11:2
43,12:2
43,13:2
43,15:2
43,16:2
43,17:3
43,18:2
43,19:2
43,20:2
43,21:2
43,22:3
43,25:3
43,26:3
43,27:3
43,28:3
43,29:3
43,30:3
43,33:3
43,34:3
43,35:3
43,36:3
43,37:2
43,38:3
43,40:3
43,41:3
43,42:3
43,44:3
43,45:3

<end>

<optimal SALBP-1 value>
3


<rand seed>
467321153

